
;this file is automatically generated: Fri Mar 04 16:34:32 GMT 2016

;declarations generated

(declare-fun type_16e3023c_f67b_42a5_b1ee_a0dc431c4d0d_C ( Int) Bool )
(declare-fun obj_a667c2c6_27c2_4ddd_b423_9f0832a7deb3 ( Int) Int )
(declare-fun type_6592e26d_535c_4a8c_bfdb_8360f1cde85c_A ( Int) Bool )
(declare-fun aux0 () Int )
(declare-fun type_fb4c8dd2_1467_4020_a117_c3c695b6bc7a_D ( Int) Bool )
(declare-fun type_34743e03_0e8c_4472_9fb0_bbd6f3102c4e_B ( Int) Bool )

;formula(s) generated
(assert (and (>= aux0 0) (<= aux0 1)))
(assert (or (or (forall ((b Int)) (=> (and ( type_34743e03_0e8c_4472_9fb0_bbd6f3102c4e_B b )  ( type_6592e26d_535c_4a8c_bfdb_8360f1cde85c_A b ) ) (forall ((c Int)) (=> (and ( type_16e3023c_f67b_42a5_b1ee_a0dc431c4d0d_C c )  ( type_6592e26d_535c_4a8c_bfdb_8360f1cde85c_A c ) ) (not (= ( obj_a667c2c6_27c2_4ddd_b423_9f0832a7deb3 b )  ( obj_a667c2c6_27c2_4ddd_b423_9f0832a7deb3 c ) ) ))))) (and (= aux0 1) true)) (and (= aux0 0) false)))
(assert (forall ((b Int)) (=> (and ( type_34743e03_0e8c_4472_9fb0_bbd6f3102c4e_B b )  ( type_6592e26d_535c_4a8c_bfdb_8360f1cde85c_A b ) ) (forall ((c Int)) (=> (and ( type_16e3023c_f67b_42a5_b1ee_a0dc431c4d0d_C c )  ( type_6592e26d_535c_4a8c_bfdb_8360f1cde85c_A c ) ) (not (= ( obj_a667c2c6_27c2_4ddd_b423_9f0832a7deb3 b )  ( obj_a667c2c6_27c2_4ddd_b423_9f0832a7deb3 c ) ) ))))))
(assert (exists ((o Int)) ( type_6592e26d_535c_4a8c_bfdb_8360f1cde85c_A o ) ))
(assert (exists ((o Int)) (and ( type_34743e03_0e8c_4472_9fb0_bbd6f3102c4e_B o )  ( type_6592e26d_535c_4a8c_bfdb_8360f1cde85c_A o ) )))
(assert (exists ((o Int)) (and ( type_16e3023c_f67b_42a5_b1ee_a0dc431c4d0d_C o )  ( type_6592e26d_535c_4a8c_bfdb_8360f1cde85c_A o ) )))
(assert (exists ((o Int)) (and (and (and ( type_fb4c8dd2_1467_4020_a117_c3c695b6bc7a_D o )  ( type_6592e26d_535c_4a8c_bfdb_8360f1cde85c_A o ) ) ( type_34743e03_0e8c_4472_9fb0_bbd6f3102c4e_B o ) ) ( type_16e3023c_f67b_42a5_b1ee_a0dc431c4d0d_C o ) )))
(assert (= aux0 0))

 ;end of formula 
